unsat
(define-fun skel ((n386 Bool) (n389 Bool) (n393 Bool) (n388 Bool) (i_9 Bool)) Bool (and n393 (and i_9 (and (or n386 n389) (not (or n388 (and n386 n389)))))))
278.83user 0.50system 4:39.34elapsed 99%CPU (0avgtext+0avgdata 450556maxresident)k
0inputs+8outputs (0major+173580minor)pagefaults 0swaps
